(set-info :smt-lib-version 2.6)
(set-logic QF_UFLRA)
(set-info :source |
MathSat group

|)
(set-info :category "random")
(set-info :status sat)
(declare-fun x0 () Real)
(declare-fun x1 () Real)
(declare-fun x2 () Real)
(declare-fun x3 () Real)
(declare-fun x4 () Real)
(declare-fun x5 () Real)
(declare-fun x6 () Real)
(declare-fun x7 () Real)
(declare-fun x8 () Real)
(declare-fun x9 () Real)
(declare-fun x10 () Real)
(declare-fun x11 () Real)
(declare-fun x12 () Real)
(declare-fun x13 () Real)
(declare-fun x14 () Real)
(declare-fun x15 () Real)
(declare-fun x16 () Real)
(declare-fun x17 () Real)
(declare-fun x18 () Real)
(declare-fun x19 () Real)
(declare-fun x20 () Real)
(declare-fun x21 () Real)
(declare-fun x22 () Real)
(declare-fun x23 () Real)
(declare-fun x24 () Real)
(declare-fun x25 () Real)
(declare-fun x26 () Real)
(declare-fun x27 () Real)
(declare-fun x28 () Real)
(declare-fun x29 () Real)
(declare-fun f0_1 (Real) Real)
(declare-fun f0_2 (Real Real) Real)
(declare-fun f0_3 (Real Real Real) Real)
(declare-fun f0_4 (Real Real Real Real) Real)
(declare-fun P0 () Bool)
(declare-fun P1 () Bool)
(declare-fun P2 () Bool)
(declare-fun P3 () Bool)
(declare-fun P4 () Bool)
(declare-fun P5 () Bool)
(declare-fun P6 () Bool)
(declare-fun P7 () Bool)
(declare-fun P8 () Bool)
(declare-fun P9 () Bool)
(declare-fun P10 () Bool)
(declare-fun P11 () Bool)
(declare-fun P12 () Bool)
(declare-fun P13 () Bool)
(declare-fun P14 () Bool)
(declare-fun P15 () Bool)
(declare-fun P16 () Bool)
(declare-fun P17 () Bool)
(declare-fun P18 () Bool)
(declare-fun P19 () Bool)
(declare-fun P20 () Bool)
(declare-fun P21 () Bool)
(declare-fun P22 () Bool)
(declare-fun P23 () Bool)
(declare-fun P24 () Bool)
(declare-fun P25 () Bool)
(declare-fun P26 () Bool)
(declare-fun P27 () Bool)
(declare-fun P28 () Bool)
(declare-fun P29 () Bool)
(assert (let ((?v_72 (<= (- (+ (* 2 x20) (* 23 x18)) (* 20 x7)) 0)) (?v_20 (* 14 x19))) (let ((?v_49 (< (- (- (* 17 x15) ?v_20) (* 35 x27)) 23)) (?v_17 (< (- (+ (* 24 x10) (* 29 x15)) (* 22 x1)) 10)) (?v_24 (< (- (- (* 16 x28) (* 36 x4)) (* 24 x1)) 36)) (?v_41 (< (+ (- (* 4 x9) (* 12 x20)) (* 22 x11)) 33)) (?v_76 (distinct x16 (f0_1 x5))) (?v_11 (= x14 (f0_2 x11 x10))) (?v_77 (= (f0_1 x7) (f0_2 x9 x25))) (?v_138 (distinct x28 x5)) (?v_64 (distinct x3 (f0_2 x17 x18))) (?v_79 (distinct (f0_2 x13 x6) (f0_1 x11))) (?v_70 (distinct (f0_1 x16) (f0_1 x18))) (?v_21 (f0_1 x4))) (let ((?v_131 (distinct x23 ?v_21)) (?v_15 (f0_1 x25))) (let ((?v_109 (distinct (f0_1 x15) ?v_15)) (?v_148 (distinct (f0_2 x7 x18) x10)) (?v_51 (f0_1 x1))) (let ((?v_47 (= (f0_2 x25 x24) ?v_51)) (?v_23 (distinct (f0_2 x8 x23) (f0_2 x19 x22))) (?v_111 (= ?v_15 (f0_1 x22))) (?v_10 (f0_1 x10))) (let ((?v_40 (= ?v_10 x9)) (?v_7 (f0_1 x27))) (let ((?v_37 (distinct ?v_7 (f0_2 x15 x12))) (?v_31 (distinct ?v_7 ?v_15)) (?v_69 (= (f0_1 x13) (f0_2 x7 x28))) (?v_33 (distinct (f0_2 x5 x23) (f0_2 x21 x12))) (?v_95 (distinct (f0_2 x2 x9) (f0_2 x27 x26))) (?v_87 (= (f0_2 x13 x20) ?v_15)) (?v_2 (= (f0_2 x12 x28) x25)) (?v_126 (distinct (f0_2 x7 x2) (f0_2 x10 x20))) (?v_101 (distinct x11 (f0_1 x23))) (?v_62 (distinct ?v_51 (f0_2 x5 x10))) (?v_25 (= ?v_21 (f0_1 x21))) (?v_110 (= x20 (f0_1 x0))) (?v_57 (= ?v_10 x7)) (?v_86 (= x19 (f0_2 x14 x1))) (?v_27 (= x3 x7)) (?v_92 (distinct (f0_1 x24) x14)) (?v_6 (not P5)) (?v_68 (not P26)) (?v_0 (not ?v_40)) (?v_44 (not P15)) (?v_56 (not P22))) (let ((?v_73 (not ?v_2)) (?v_45 (not ?v_72)) (?v_1 (not ?v_64)) (?v_152 (not ?v_11)) (?v_50 (not ?v_23)) (?v_55 (not P11)) (?v_14 (not P25)) (?v_42 (not P4)) (?v_46 (not ?v_69)) (?v_12 (not P7)) (?v_48 (not P8)) (?v_13 (not ?v_41)) (?v_67 (not P19)) (?v_82 (not ?v_87)) (?v_125 (not ?v_17)) (?v_28 (not ?v_77)) (?v_114 (not ?v_33)) (?v_129 (not ?v_131)) (?v_29 (not ?v_126)) (?v_135 (not ?v_25)) (?v_88 (not ?v_27)) (?v_142 (not ?v_95)) (?v_39 (not ?v_110)) (?v_83 (not ?v_31)) (?v_54 (not ?v_92)) (?v_153 (or ?v_31 ?v_70)) (?v_104 (not ?v_47))) (let ((?v_156 (or ?v_104 P28)) (?v_124 (not P18)) (?v_118 (not P3)) (?v_94 (not P1)) (?v_107 (not ?v_86)) (?v_139 (not P27)) (?v_74 (not P6)) (?v_84 (not P23)) (?v_90 (not P16)) (?v_99 (not P20)) (?v_108 (not P14)) (?v_145 (not ?v_37)) (?v_78 (not ?v_62)) (?v_112 (not P17)) (?v_127 (not ?v_148)) (?v_102 (not ?v_70)) (?v_105 (not ?v_57)) (?v_116 (not ?v_49)) (?v_97 (not ?v_79)) (?v_96 (not P21)) (?v_106 (not P2)) (?v_115 (not ?v_138)) (?v_158 (not P9)) (?v_122 (not ?v_24)) (?v_123 (not ?v_111)) (?v_134 (not P0)) (?v_141 (not ?v_76)) (?v_157 (not P13)) (?v_144 (not P10)) (?v_133 (not ?v_109)) (?v_132 (not P28))) (let ((?v_146 (or ?v_97 ?v_131)) (?v_151 (not ?v_101)) (?v_147 (not P12)) (?v_154 (not P24)) (?v_150 (not P29)) (?v_5 (distinct (- (- (* 2 x27) 0) (* 2 x16)) 0)) (?v_19 (< (+ (- 0 (* 28 x6)) (* 21 x5)) 11))) (let ((?v_18 (not ?v_19)) (?v_71 (distinct (+ (* 6 x24) (* 16 x8) (* 26 x25)) 37)) (?v_128 (< (- (- (* 13 x9) (* 29 x12)) 0) 44))) (let ((?v_136 (not ?v_128)) (?v_75 (<= (- 0 (* 37 x26)) 8)) (?v_119 (not ?v_71)) (?v_89 (not ?v_5))) (let ((?v_149 (not ?v_75)) (?v_63 (<= (+ (- (* (- 2) x24) (* 10 x29)) (* 22 x17)) (- 44)))) (let ((?v_81 (not ?v_63)) (?v_66 (< (- (* (- 3) x0) (* 39 x29)) (- 26)))) (let ((?v_98 (not ?v_66)) (?v_4 (< (+ (- (* (- 29) x18) (* 21 x22)) x12) (- 40)))) (let ((?v_38 (not ?v_4)) (?v_9 (< (+ (- (* (- 39) x19) (* 13 x16)) (* 40 x6)) (- 33))) (?v_3 (< (- (- (* 19 x1) (* 18 x15)) (* 26 x4)) (- 36)))) (let ((?v_80 (not ?v_3)) (?v_8 (distinct (- (+ (* (- 37) x1) (* 13 x10)) x29) (- 37)))) (let ((?v_52 (not ?v_8)) (?v_60 (< (- (+ x22 (* 6 x22)) (* 5 x10)) (- 36))) (?v_59 (<= (+ (- (* (- 5) x21) (* 3 x24)) (* 21 x17)) (- 38)))) (let ((?v_26 (not ?v_59)) (?v_140 (< (+ (- (* 11 x0) (* 7 x17)) (* 14 x7)) (- 18)))) (let ((?v_91 (not ?v_140)) (?v_16 (= (- (- (* (- 28) x11) (* 36 x28)) (* 32 x12)) 20)) (?v_43 (<= (- (+ (* (- 11) x8) (* 9 x17)) (* 4 x20)) (- 38))) (?v_58 (<= (- (+ (* (- 41) x5) (* 40 x20)) (* 40 x28)) 24))) (let ((?v_100 (not ?v_58)) (?v_103 (<= (- (- (* (- 30) x3) (* 12 x28)) (* 37 x27)) 0))) (let ((?v_30 (not ?v_103)) (?v_22 (<= (+ (- (* 20 x25) (* 8 x8)) (* 42 x23)) (- 5))) (?v_61 (<= (- (- (* (- 6) x8) (* 27 x24)) (* 28 x5)) (- 39))) (?v_34 (distinct (+ (- (* (- 41) x21) ?v_20) (* 40 x15)) 37))) (let ((?v_120 (not ?v_34)) (?v_32 (not ?v_22)) (?v_35 (< (- (- (* (- 5) x0) (* 33 x8)) (* 27 x2)) (- 2))) (?v_36 (< (- (* 14 x23) (* 26 x27)) (- 31))) (?v_85 (= (- (* 3 x3) (* 32 x19)) (- 36)))) (let ((?v_53 (not ?v_85)) (?v_117 (<= (+ (- (* 6 x4) (* 2 x17)) (* 24 x2)) (- 24))) (?v_93 (not ?v_35)) (?v_65 (not ?v_61)) (?v_113 (not ?v_9)) (?v_130 (not ?v_36)) (?v_137 (not ?v_16)) (?v_143 (not ?v_43))) (let ((?v_121 (not ?v_117)) (?v_155 (or ?v_96 ?v_103)) (?v_159 (not ?v_60))) (and (and (and (and (and (and (and (and (and (and (and (and (and (and (and (and (and (and (and (and (and (and (and (and (and (and (and (and (and (and (and (and (and (and (and (and (and (and (and (and (and (and (and (and (and (and (and (and (and (and (and (and (and (and (and (and (and (and (and (and (and (and (and (and (and (and (and (and (and (and (and (and (and (and (and (and (and (and (and (and (and (and (and (and (and (and (and (and (and (and (and (and (and (and (and (and (and (and (and (and (and (and (and (and (and (and (and (and (and (and (and (and (and (and (and (and (and (and (and (and (and (and (and (and (and (and (and (and (and (and (and (and (and (and (and (and (and (and (and (and (and (and (and (and (and (and (and (and (and (and (and (and (and (and (and (and (and (and (and (and (and (and (and (and (and (and (and (and (and (and (and (and (and (and (and (and (and (and (and (and (and (and (and (and (and (and (and (and (and (and (and (and (and (and (and (and (and (and (and (and (and (and (and (and (and (and (and (and (and (and (and (and (and (and (and (and (and (and (and (and (and (and (and (and (and (and (and (and (and (and (and (and (and (and (and (and (and (and (and (and (and (and (and (and (and (and (and (and (and (and (and (and (and (and (and (and (and (and (and (and (and (and (and (and (and (and (and (and (and (and (and (and (and (and (and (and (and (and (and (and (and (and (and (and (and (and (and (and (and (and (and (and (and (and (and (and (and (and (and (and (and (and (and (and (and (and (and (and (and (and (and (and (and (and (and (and (and (and (and (and (and (and (and (and (and (and (and (and (and (and (and (and (and (and (and (and (and (and (and (and (and (and (and (and (and (and (and (and (and (and (and (and (and (and (and (and (and (and (and (or (or ?v_81 P26) ?v_6) (or (or ?v_68 ?v_27) ?v_98)) (or (or ?v_0 ?v_44) ?v_24)) (or (or ?v_56 P12) ?v_38)) (or (or ?v_73 ?v_9) ?v_45)) (or (or ?v_5 ?v_25) ?v_1)) (or (or ?v_80 ?v_152) ?v_50)) (or (or ?v_55 ?v_14) ?v_52)) (or (or ?v_42 ?v_0) ?v_1)) (or (or ?v_2 ?v_46) ?v_12)) (or (or ?v_60 ?v_3) ?v_4)) (or (or ?v_5 ?v_26) ?v_31)) (or (or P6 ?v_48) ?v_91)) (or (or ?v_6 P28) ?v_37)) (or (or ?v_8 ?v_9) ?v_16)) (or (or ?v_13 ?v_67) P0)) (or (or ?v_57 ?v_11) P12)) (or (or ?v_43 P11) ?v_17)) (or (or ?v_12 ?v_2) ?v_100)) (or (or ?v_13 ?v_14) ?v_82)) (or (or P25 ?v_18) ?v_30)) (or (or P11 ?v_16) ?v_125)) (or (or ?v_28 ?v_22) ?v_114)) (or (or ?v_49 ?v_18) P25)) (or (or ?v_2 ?v_61) ?v_19)) (or (or ?v_120 ?v_129) ?v_32)) (or (or ?v_4 ?v_71) P6)) (or (or ?v_29 ?v_23) ?v_24)) (or (or ?v_76 ?v_35) ?v_135)) (or (or P15 ?v_26) ?v_88)) (or (or ?v_4 ?v_28) ?v_36)) (or (or ?v_5 ?v_136) ?v_29)) (or (or ?v_142 ?v_30) ?v_27)) (or (or ?v_39 ?v_83) ?v_32)) (or (or ?v_33 P7) ?v_5)) (or (or ?v_34 P25) ?v_35)) (or (or ?v_36 ?v_36) ?v_37)) (or (or ?v_111 ?v_38) ?v_47)) (or (or ?v_79 ?v_54) ?v_39)) (or (or ?v_40 ?v_29) ?v_41)) (or (or ?v_42 P16) ?v_43)) (or (or ?v_53 ?v_23) ?v_24)) (or ?v_153 ?v_117)) (or (or ?v_44 ?v_45) ?v_46)) (or ?v_156 ?v_48)) (or (or ?v_49 ?v_24) ?v_124)) (or (or ?v_38 ?v_118) ?v_50)) (or (or P23 ?v_62) ?v_93)) (or (or ?v_94 ?v_107) ?v_52)) (or (or ?v_1 ?v_139) ?v_74)) (or (or P5 ?v_53) ?v_54)) (or (or ?v_84 ?v_55) ?v_39)) (or (or ?v_30 ?v_38) P12)) (or (or ?v_90 ?v_56) ?v_54)) (or (or ?v_99 ?v_108) ?v_57)) (or (or ?v_18 ?v_58) ?v_59)) (or (or ?v_145 ?v_60) ?v_24)) (or (or ?v_65 ?v_50) ?v_78)) (or (or ?v_63 ?v_64) ?v_56)) (or (or P26 ?v_65) ?v_112)) (or (or ?v_127 P5) ?v_14)) (or (or ?v_66 ?v_67) ?v_68)) (or (or ?v_25 ?v_69) ?v_1)) (or (or ?v_75 ?v_102) ?v_17)) (or (or ?v_119 ?v_56) P27)) (or (or P14 ?v_72) ?v_105)) (or (or ?v_73 ?v_23) ?v_74)) (or (or ?v_33 ?v_75) P5)) (or (or P9 ?v_38) ?v_44)) (or (or ?v_2 ?v_76) ?v_77)) (or (or ?v_116 ?v_78) ?v_97)) (or (or ?v_8 ?v_54) ?v_80)) (or (or ?v_81 ?v_82) ?v_78)) (or (or ?v_11 P8) ?v_89)) (or (or P5 ?v_83) ?v_22)) (or (or ?v_84 ?v_96) P7)) (or (or ?v_85 ?v_72) ?v_86)) (or (or ?v_87 ?v_6) ?v_88)) (or (or ?v_89 ?v_90) ?v_6)) (or (or ?v_101 ?v_27) ?v_73)) (or (or P4 ?v_62) P8)) (or (or ?v_91 ?v_25) ?v_62)) (or (or ?v_2 ?v_60) ?v_92)) (or (or ?v_93 ?v_94) ?v_11)) (or (or P24 ?v_106) ?v_93)) (or (or P5 ?v_37) ?v_17)) (or (or ?v_95 ?v_109) ?v_1)) (or (or P8 ?v_17) ?v_86)) (or (or ?v_96 P29) ?v_80)) (or (or P27 P16) ?v_97)) (or (or ?v_4 ?v_62) ?v_98)) (or (or ?v_2 ?v_99) ?v_65)) (or (or ?v_100 ?v_101) ?v_78)) (or (or ?v_102 ?v_50) ?v_74)) (or (or ?v_103 ?v_104) ?v_78)) (or (or P23 ?v_16) P16)) (or (or ?v_62 ?v_113) ?v_85)) (or (or ?v_105 ?v_70) ?v_4)) (or (or ?v_4 ?v_106) ?v_17)) (or (or ?v_107 ?v_108) ?v_115)) (or (or ?v_63 ?v_71) ?v_11)) (or (or ?v_68 P6) ?v_99)) (or (or ?v_31 ?v_92) ?v_28)) (or (or ?v_6 P9) ?v_52)) (or (or ?v_109 ?v_26) P3)) (or (or ?v_81 ?v_4) ?v_29)) (or (or ?v_110 ?v_92) ?v_111)) (or (or P19 P16) ?v_46)) (or (or ?v_112 ?v_113) ?v_22)) (or (or ?v_52 ?v_107) ?v_75)) (or (or ?v_35 ?v_53) ?v_109)) (or (or ?v_44 P19) ?v_55)) (or (or ?v_42 ?v_14) ?v_94)) (or (or P7 ?v_130) ?v_137)) (or (or ?v_108 P2) ?v_114)) (or (or ?v_50 ?v_158) ?v_25)) (or (or ?v_58 ?v_143) ?v_122)) (or (or ?v_48 ?v_72) ?v_115)) (or (or ?v_43 P6) ?v_28)) (or (or ?v_98 ?v_55) ?v_116)) (or (or ?v_91 ?v_82) ?v_0)) (or (or ?v_71 ?v_114) ?v_38)) (or (or ?v_107 ?v_149) ?v_78)) (or (or ?v_87 ?v_110) ?v_9)) (or (or ?v_69 ?v_86) ?v_75)) (or (or ?v_46 ?v_121) ?v_118)) (or (or ?v_25 ?v_5) ?v_2)) (or (or ?v_44 ?v_30) ?v_33)) (or (or ?v_79 ?v_123) ?v_112)) (or (or ?v_87 ?v_98) ?v_36)) (or (or ?v_72 P6) ?v_134)) (or (or ?v_119 ?v_49) ?v_44)) (or ?v_155 ?v_72)) (or (or ?v_120 P10) ?v_8)) (or (or P27 ?v_116) ?v_2)) (or (or ?v_121 ?v_13) ?v_122)) (or (or ?v_107 ?v_22) ?v_40)) (or (or ?v_114 P4) ?v_41)) (or (or ?v_5 ?v_120) P15)) (or (or ?v_34 ?v_101) ?v_4)) (or (or ?v_141 ?v_35) ?v_101)) (or (or ?v_32 ?v_157) ?v_104)) (or (or ?v_48 ?v_84) ?v_83)) (or (or ?v_49 ?v_123) ?v_110)) (or (or ?v_144 ?v_120) ?v_3)) (or (or ?v_97 ?v_113) ?v_4)) (or (or ?v_36 ?v_121) ?v_40)) (or (or ?v_133 ?v_5) P6)) (or (or ?v_85 ?v_124) ?v_92)) (or (or ?v_35 ?v_96) ?v_123)) (or (or ?v_41 P6) ?v_125)) (or (or ?v_40 ?v_54) P11)) (or (or ?v_76 ?v_46) ?v_48)) (or (or ?v_89 ?v_26) ?v_43)) (or (or P6 ?v_126) ?v_127)) (or (or ?v_6 P17) ?v_78)) (or (or ?v_108 ?v_104) ?v_39)) (or (or ?v_106 ?v_128) ?v_26)) (or (or ?v_81 ?v_75) ?v_19)) (or (or ?v_129 P4) ?v_132)) (or (or ?v_105 ?v_69) ?v_32)) (or (or ?v_66 ?v_126) ?v_39)) (or (or ?v_110 ?v_6) ?v_65)) (or (or ?v_100 ?v_27) ?v_14)) (or (or ?v_95 P13) ?v_114)) (or (or ?v_12 ?v_30) P11)) (or (or ?v_130 ?v_63) ?v_119)) (or ?v_146 ?v_123)) (or (or ?v_132 ?v_45) P8)) (or (or ?v_49 ?v_41) ?v_126)) (or (or ?v_61 ?v_119) ?v_102)) (or (or P7 ?v_119) P27)) (or (or ?v_102 ?v_37) ?v_133)) (or (or ?v_116 ?v_17) ?v_95)) (or (or P21 P15) P5)) (or (or ?v_127 ?v_54) P5)) (or (or ?v_134 ?v_135) ?v_3)) (or (or ?v_120 ?v_111) ?v_26)) (or (or ?v_62 ?v_23) ?v_135)) (or (or P28 ?v_113) ?v_48)) (or (or ?v_100 P19) ?v_101)) (or (or ?v_124 ?v_49) P4)) (or (or ?v_54 ?v_136) ?v_119)) (or (or ?v_53 ?v_136) ?v_74)) (or (or ?v_101 ?v_75) ?v_137)) (or (or ?v_18 ?v_13) ?v_5)) (or (or ?v_109 ?v_97) ?v_108)) (or (or ?v_85 ?v_106) ?v_92)) (or (or ?v_63 ?v_77) P22)) (or (or ?v_151 P25) ?v_19)) (or (or ?v_24 ?v_138) ?v_27)) (or (or ?v_114 ?v_16) ?v_147)) (or (or ?v_126 ?v_0) ?v_26)) (or (or ?v_6 ?v_44) ?v_86)) (or (or ?v_122 ?v_28) ?v_94)) (or (or P11 P5) ?v_139)) (or (or P24 ?v_35) ?v_18)) (or (or ?v_9 ?v_140) ?v_84)) (or (or ?v_48 ?v_55) P3)) (or (or P15 ?v_48) ?v_141)) (or (or ?v_25 ?v_132) ?v_142)) (or (or ?v_18 ?v_135) ?v_52)) (or (or ?v_18 ?v_80) ?v_123)) (or (or ?v_27 ?v_124) ?v_65)) (or (or ?v_43 P4) ?v_14)) (or (or ?v_14 ?v_137) ?v_54)) (or (or ?v_60 ?v_99) ?v_50)) (or (or ?v_124 ?v_18) ?v_64)) (or (or P18 ?v_126) ?v_55)) (or (or ?v_46 ?v_35) ?v_143)) (or (or ?v_94 ?v_90) ?v_99)) (or (or P6 ?v_54) ?v_52)) (or (or P24 ?v_143) P16)) (or (or ?v_92 P6) P0)) (or (or ?v_116 ?v_112) ?v_24)) (or (or ?v_110 ?v_29) ?v_96)) (or (or ?v_28 ?v_39) P16)) (or (or ?v_2 P13) ?v_58)) (or (or ?v_90 ?v_87) ?v_47)) (or (or ?v_101 ?v_135) ?v_13)) (or (or P18 ?v_99) ?v_46)) (or (or P16 P2) ?v_14)) (or (or P14 ?v_49) ?v_6)) (or (or ?v_89 ?v_144) ?v_108)) (or (or P3 P3) ?v_137)) (or (or ?v_54 ?v_129) ?v_37)) (or (or ?v_107 ?v_53) ?v_1)) (or (or ?v_55 ?v_42) ?v_99)) (or (or ?v_101 ?v_37) P5)) (or (or ?v_142 ?v_91) ?v_114)) (or (or ?v_87 ?v_75) ?v_100)) (or (or ?v_8 P15) ?v_72)) (or (or ?v_66 ?v_55) ?v_65)) (or (or ?v_3 ?v_69) ?v_115)) (or (or P28 P27) ?v_13)) (or (or P23 P24) ?v_123)) (or (or ?v_122 ?v_99) ?v_81)) (or (or P27 ?v_145) P7)) (or (or ?v_1 P24) ?v_125)) (or (or ?v_32 ?v_73) P9)) (or (or ?v_154 ?v_120) ?v_13)) (or (or ?v_127 ?v_69) ?v_83)) (or (or ?v_26 ?v_71) ?v_116)) (or ?v_146 ?v_96)) (or (or ?v_92 P7) ?v_44)) (or (or ?v_64 ?v_150) ?v_66)) (or (or ?v_136 ?v_110) P28)) (or (or P17 ?v_142) ?v_52)) (or (or ?v_66 ?v_123) ?v_147)) (or (or ?v_56 ?v_136) ?v_28)) (or (or ?v_104 ?v_66) ?v_42)) (or (or ?v_115 ?v_3) ?v_129)) (or (or P7 ?v_109) ?v_126)) (or (or ?v_127 ?v_74) P9)) (or (or ?v_73 ?v_129) ?v_32)) (or (or ?v_31 ?v_5) ?v_13)) (or (or ?v_119 ?v_45) ?v_80)) (or (or ?v_57 ?v_145) ?v_147)) (or (or ?v_97 ?v_94) ?v_19)) (or (or ?v_105 ?v_148) ?v_6)) (or (or P21 ?v_95) ?v_76)) (or (or ?v_140 ?v_87) ?v_49)) (or (or ?v_28 P21) ?v_126)) (or (or ?v_149 ?v_148) ?v_114)) (or (or ?v_50 ?v_18) ?v_121)) (or (or ?v_141 ?v_34) ?v_150)) (or (or P2 P27) ?v_27)) (or (or P29 ?v_100) ?v_123)) (or (or ?v_101 ?v_116) ?v_108)) (or (or P12 ?v_74) ?v_151)) (or (or ?v_138 ?v_118) ?v_141)) (or (or ?v_5 ?v_35) ?v_138)) (or (or ?v_40 ?v_100) P4)) (or (or ?v_120 P9) ?v_45)) (or (or ?v_118 P29) ?v_14)) (or (or ?v_152 ?v_55) ?v_30)) (or (or ?v_122 P4) ?v_52)) (or (or ?v_52 ?v_136) ?v_147)) (or (or ?v_26 ?v_26) ?v_84)) (or (or ?v_148 P11) ?v_72)) (or ?v_153 ?v_88)) (or (or ?v_132 ?v_111) ?v_140)) (or (or ?v_19 P21) ?v_39)) (or (or ?v_55 ?v_56) ?v_122)) (or (or ?v_60 P14) ?v_63)) (or (or ?v_44 ?v_77) ?v_13)) (or (or ?v_117 ?v_89) ?v_39)) (or (or ?v_106 ?v_107) ?v_154)) (or (or ?v_83 ?v_137) ?v_71)) (or (or ?v_54 ?v_103) P3)) (or (or ?v_124 ?v_102) ?v_39)) (or (or ?v_22 ?v_23) ?v_17)) (or (or ?v_11 ?v_159) ?v_54)) (or ?v_155 ?v_47)) (or (or ?v_1 ?v_54) ?v_77)) (or (or ?v_75 ?v_86) P27)) (or (or ?v_136 ?v_89) ?v_120)) (or (or P11 ?v_49) ?v_121)) (or (or ?v_140 ?v_135) P26)) (or (or ?v_17 ?v_138) ?v_37)) (or (or ?v_31 ?v_72) ?v_103)) (or (or ?v_127 ?v_143) ?v_58)) (or (or ?v_19 ?v_152) ?v_88)) (or (or ?v_116 ?v_42) ?v_50)) (or (or ?v_3 P27) ?v_81)) (or (or P10 P10) ?v_24)) (or (or ?v_70 ?v_25) ?v_74)) (or (or ?v_151 ?v_138) ?v_81)) (or (or P17 P29) ?v_102)) (or (or ?v_86 ?v_48) ?v_43)) (or (or P26 ?v_12) ?v_151)) (or (or ?v_142 ?v_31) ?v_14)) (or (or ?v_81 ?v_54) ?v_36)) (or (or ?v_56 ?v_126) P2)) (or ?v_156 ?v_151)) (or (or ?v_85 P17) P22)) (or (or P17 ?v_27) ?v_144)) (or (or ?v_130 ?v_54) ?v_48)) (or (or ?v_102 ?v_30) ?v_63)) (or (or ?v_93 ?v_139) ?v_144)) (or (or ?v_152 ?v_149) ?v_32)) (or (or ?v_137 ?v_63) ?v_55)) (or (or ?v_42 ?v_68) ?v_124)) (or (or ?v_67 P4) ?v_127)) (or (or ?v_55 ?v_13) ?v_134)) (or (or ?v_84 ?v_131) ?v_107)) (or (or ?v_140 ?v_91) ?v_73)) (or (or ?v_149 ?v_111) ?v_135)) (or (or ?v_24 ?v_151) P6)) (or (or ?v_157 P11) ?v_46)) (or (or ?v_119 P23) ?v_121)) (or (or ?v_52 ?v_85) ?v_109)) (or (or ?v_101 ?v_63) ?v_100)) (or (or ?v_84 P16) ?v_13)) (or (or P0 ?v_34) P19)) (or (or ?v_13 P24) ?v_26)) (or (or ?v_84 ?v_149) ?v_105)) (or (or ?v_89 ?v_158) ?v_60)) (or (or ?v_38 ?v_29) ?v_84)) (or (or ?v_159 ?v_101) ?v_33)) (or (or ?v_12 ?v_56) ?v_130)) (or (or ?v_2 ?v_53) ?v_96)) (or (or ?v_96 ?v_125) ?v_49)) (or (or ?v_132 ?v_30) ?v_130)) (or (or ?v_86 ?v_34) ?v_133)) (or (or ?v_80 ?v_41) ?v_54)) (or (or ?v_39 P8) ?v_40)) (or (or ?v_38 ?v_109) ?v_102)) (or (or ?v_100 ?v_91) ?v_102)) (or (or ?v_28 ?v_49) ?v_95)) (or (or ?v_138 ?v_137) ?v_140)) (or (or ?v_110 P27) ?v_14)) (or (or ?v_74 ?v_141) ?v_109)) (or (or ?v_131 ?v_154) ?v_86)) (or (or ?v_124 P25) ?v_22)) (or (or P15 ?v_79) ?v_71)) (or (or ?v_27 ?v_36) P28)) (or (or P1 ?v_150) P14)) (or (or P12 ?v_41) P14)) (or (or ?v_132 P28) P13))))))))))))))))))))))))))))
(check-sat)
(exit)
